495, 0, 0, 84, 0
496, 0, 1, 89, 3
497, 0, 2, 52, 1
498, 0, 3, 77, 2
499, 1, 0, 89, 2
500, 1, 1, 83, 3
501, 1, 2, 85, 1
502, 1, 3, 34, 0
503, 2, 0, 64, 3
504, 2, 1, 77, 1
505, 2, 2, 86, 2
506, 2, 3, 40, 0
507, 3, 0, 84, 1
508, 3, 1, 85, 0
509, 3, 2, 99, 2
510, 3, 3, 56, 3
